data/solutions/planning/wellformed/moderate/weighting/wellformed_moderate_instance56_cplex.sol
Elapsed time: 0.51
Nodes explored: 2785
Nodes left: 0
Relative gap: 0.0
Upper bound: 19368.0
Lower bound: 19368
C[0]=625.0
C[1]=625.0
C[2]=624.0
C[3]=624.0
C[4]=624.0
y[0]=2
y[1]=4
y[2]=3
y[3]=2
y[4]=4
y[5]=1
y[6]=2
y[7]=4
y[8]=3
y[9]=1
y[10]=0
y[11]=0
y[12]=2
y[13]=3
y[14]=4
y[15]=1
y[16]=3
y[17]=1
y[18]=0
y[19]=1
y[20]=4
y[21]=3
y[22]=0
y[23]=0
y[24]=4
y[25]=0
y[26]=4
y[27]=2
y[28]=2
y[29]=0
