data/solutions/planning/wellformed/moderate/weighting/wellformed_moderate_instance56_cplex.log

Log started (V12.6.3.0) Fri Mar  2 12:52:25 2018

New value for default parallel thread count: 1

Problem '/tmp/tmpRosAeW.pyomo.lp' read.
Read time = 0.00 sec. (0.01 ticks)

Problem name         : /tmp/tmpRosAeW.pyomo.lp
Objective sense      : Minimize
Variables            :     156  [Nneg: 6,  Binary: 150]
Objective nonzeros   :       5
Linear constraints   :      40  [Less: 4,  Equal: 36]
  Nonzeros           :     314
  RHS nonzeros       :      31

Variables            : Min LB: 0.000000         Max UB: 1.000000       
Objective nonzeros   : Min   : 1.000000         Max   : 16.00000       
Linear constraints   :
  Nonzeros           : Min   : 1.000000         Max   : 168.0000       
  RHS nonzeros       : Min   : 1.000000         Max   : 1.000000       
Found incumbent of value 49952.000000 after 0.00 sec. (0.02 ticks)
Tried aggregator 2 times.
MIP Presolve eliminated 1 rows and 1 columns.
Aggregator did 2 substitutions.
Reduced MIP has 37 rows, 153 columns, and 309 nonzeros.
Reduced MIP has 150 binaries, 0 generals, 0 SOSs, and 0 indicators.
Presolve time = 0.00 sec. (0.39 ticks)
Probing fixed 0 vars, tightened 18 bounds.
Probing time = 0.00 sec. (0.30 ticks)
Tried aggregator 1 time.
Reduced MIP has 37 rows, 153 columns, and 309 nonzeros.
Reduced MIP has 150 binaries, 3 generals, 0 SOSs, and 0 indicators.
Presolve time = 0.00 sec. (0.21 ticks)
Probing time = 0.00 sec. (0.16 ticks)
Clique table members: 30.
MIP emphasis: balance optimality and feasibility.
MIP search method: dynamic search.
Parallel mode: none, using 1 thread.
Root relaxation solution time = 0.00 sec. (0.25 ticks)

        Nodes                                         Cuts/
   Node  Left     Objective  IInf  Best Integer    Best Bound    ItCnt     Gap

*     0+    0                        49952.0000        0.0000           100.00%
      0     0    19356.4000    10    49952.0000    19356.4000       39   61.25%
*     0+    0                        21049.0000    19356.4000             8.04%
      0     0    19356.4000    16    21049.0000      Cuts: 11       49    8.04%
      0     0    19356.4000    15    21049.0000      Fract: 2       55    8.04%
*     0+    0                        20787.0000    19356.4000             6.88%
*     0+    0                        20426.0000    19356.4000             5.24%
      0     2    19356.4000     9    20426.0000    19356.4000       55    5.24%
Elapsed time = 0.01 sec. (7.48 ticks, tree = 0.01 MB, solutions = 4)
*   150+  111                        19989.0000    19356.4000             3.16%
*   160+  115                        19516.0000    19356.4000             0.82%
*  1058+  715                        19486.0000    19356.4000             0.67%
*  1461+  471                        19450.0000    19368.0000             0.42%
   1761   295    19368.0000     6    19450.0000    19368.0000     4117    0.42%
   1762   296    19368.0000     6    19450.0000    19368.0000     4118    0.42%
   1763   297    19368.0000     6    19450.0000    19368.0000     4119    0.42%
   1764   298    19368.0000     6    19450.0000    19368.0000     4120    0.42%
   1765   298    19368.0000     6    19450.0000    19368.0000     4121    0.42%
   1766   298    19422.6667     6    19450.0000    19368.0000     4122    0.42%
   1767   299    19423.5000     5    19450.0000    19368.0000     4123    0.42%
   1768   300    19426.0000     4    19450.0000    19368.0000     4124    0.42%
   1769   301    19426.0000     3    19450.0000    19368.0000     4126    0.42%
*  1831+  331                        19443.0000    19368.0000             0.39%
*  1881+  320                        19426.0000    19368.0000             0.30%
*  2161+  439                        19413.0000    19368.0000             0.23%
*  2261+  418                        19398.0000    19368.0000             0.15%
*  2461+  474                        19397.0000    19368.0000             0.15%
*  2784     1      integral     0    19368.0000    19368.0000     5504    0.00%

Cover cuts applied:  1

Root node processing (before b&c):
  Real time             =    0.01 sec. (7.49 ticks)
Sequential b&c:
  Real time             =    0.48 sec. (342.69 ticks)
                          ------------
Total (root+branch&cut) =    0.49 sec. (350.18 ticks)

Solution pool: 14 solutions saved.

MIP - Integer optimal solution:  Objective =  1.9368000000e+04
Solution time =    0.49 sec.  Iterations = 5504  Nodes = 2785
Deterministic time = 350.18 ticks  (708.58 ticks/sec)


Incumbent solution written to file '/tmp/tmpkBhAAr.cplex.sol'.
